100
32
3
16
18
20
8
32
2
18
29
8
6
4
5
19
6
10
1
31
30
15
2
29
29
17
30
32
30
29
13
13
26
10
19
25
31
25
13
19
15
32
6
12
24
26
30
10
25
9
26
7
22
11
20
18
18
31
26
14
27
31
31
3
32
7
24
27
20
1
10
27
4
18
23
15
29
31
30
15
25
8
23
25
5
1
23
24
12
32
20
20
19
24
1
2
25
8
8
24
27
23